WARNING: for repeatability, setting FPU to use double precision
============================[ Problem Statistics ]=============================
|                                                                             |
|  Number of variables:            50                                         |
|  Number of clauses:             218                                         |
|  Parse time:                   0.00 s                                       |
|                                                                             |
============================[ Search Statistics ]==============================
| Conflicts |          ORIGINAL         |          LEARNT          | Progress |
|           |    Vars  Clauses Literals |    Limit  Clauses Lit/Cl |          |
===============================================================================
===============================================================================
restarts              : 1
conflicts             : 56             (38251 /sec)
decisions             : 68             (0.00 % random) (46448 /sec)
propagations          : 714            (487705 /sec)
conflict literals     : 199            (21.03 % deleted)
Memory used           : 20.00 MB
CPU time              : 0.001464 s

UNSATISFIABLE
